c description: Tseitin formula on Random 4-regular graph of 11 vertices, with odd charge
c generator: CNFgen (0.9.0)
c copyright: (C) 2012-2020 Massimo Lauria <massimo.lauria@uniroma1.it>
c url: https://massimolauria.net/cnfgen
c command line: cnfgen tseitin 11
c
p cnf 22 88
1 2 3 -4 0
1 2 -3 4 0
1 -2 3 4 0
1 -2 -3 -4 0
-1 2 3 4 0
-1 2 -3 -4 0
-1 -2 3 -4 0
-1 -2 -3 4 0
5 6 7 -8 0
5 6 -7 8 0
5 -6 7 8 0
5 -6 -7 -8 0
-5 6 7 8 0
-5 6 -7 -8 0
-5 -6 7 -8 0
-5 -6 -7 8 0
5 9 10 11 0
5 9 -10 -11 0
5 -9 10 -11 0
5 -9 -10 11 0
-5 9 10 -11 0
-5 9 -10 11 0
-5 -9 10 11 0
-5 -9 -10 -11 0
1 9 12 -13 0
1 9 -12 13 0
1 -9 12 13 0
1 -9 -12 -13 0
-1 9 12 13 0
-1 9 -12 -13 0
-1 -9 12 -13 0
-1 -9 -12 13 0
6 14 15 -16 0
6 14 -15 16 0
6 -14 15 16 0
6 -14 -15 -16 0
-6 14 15 16 0
-6 14 -15 -16 0
-6 -14 15 -16 0
-6 -14 -15 16 0
17 18 19 20 0
17 18 -19 -20 0
17 -18 19 -20 0
17 -18 -19 20 0
-17 18 19 -20 0
-17 18 -19 20 0
-17 -18 19 20 0
-17 -18 -19 -20 0
7 10 17 -21 0
7 10 -17 21 0
7 -10 17 21 0
7 -10 -17 -21 0
-7 10 17 21 0
-7 10 -17 -21 0
-7 -10 17 -21 0
-7 -10 -17 21 0
2 8 14 -22 0
2 8 -14 22 0
2 -8 14 22 0
2 -8 -14 -22 0
-2 8 14 22 0
-2 8 -14 -22 0
-2 -8 14 -22 0
-2 -8 -14 22 0
3 12 15 -18 0
3 12 -15 18 0
3 -12 15 18 0
3 -12 -15 -18 0
-3 12 15 18 0
-3 12 -15 -18 0
-3 -12 15 -18 0
-3 -12 -15 18 0
4 13 16 -19 0
4 13 -16 19 0
4 -13 16 19 0
4 -13 -16 -19 0
-4 13 16 19 0
-4 13 -16 -19 0
-4 -13 16 -19 0
-4 -13 -16 19 0
11 20 21 22 0
11 20 -21 -22 0
11 -20 21 -22 0
11 -20 -21 22 0
-11 20 21 -22 0
-11 20 -21 22 0
-11 -20 21 22 0
-11 -20 -21 -22 0
